1	17	1	8	29	100	0	0	0	0	0	0
2000	1	0	0	0	0	0	0	0	0	0	0
250	1	0	194.58	0.15	1	0	0	0	0	0	0
250	1	0	194.58	0.15	1	0	0	0	0	0	0
250	1	0	194.58	0.15	1	0	0	0	0	0	0
250	1	0	194.58	0.15	1	0	0	0	0	0	0
250	1	0	194.58	0.15	1	0	0	0	0	0	0
250	1	0	194.58	0.15	1	0	0	0	0	0	0
250	1	0	194.58	0.15	1	0	0	0	0	0	0
250	1	0	194.58	0.15	1	0	0	0	0	0	0
250	1	0	194.58	0.15	1	0	0	0	0	0	0
250	1	0	194.58	0.15	1	0	0	0	0	0	0
250	1	0	194.58	0.15	1	0	0	0	0	0	0
250	1	0	194.58	0.15	1	0	0	0	0	0	0
250	1	0	194.58	0.15	1	0	0	0	0	0	0
250	1	0	194.58	0.15	1	0	0	0	0	0	0
250	1	0	194.58	0.15	1	0	0	0	0	0	0
250	1	0	194.58	0.15	1	0	0	0	0	0	0
250	1	0	194.58	0.15	1	0	0	0	0	0	0
50	150	0	0	0	0	960	0	0	99999	0	0
25	25	0	0	0	0	960	0	0	99999	0	0
50	25	0	0	0	0	960	0	0	99999	0	0
75	25	0	0	0	0	960	0	0	99999	0	0
25	50	0	0	0	0	960	0	0	99999	0	0
75	50	0	0	0	0	960	0	0	99999	0	0
25	75	0	0	0	0	960	0	0	99999	0	0
50	75	0	0	0	0	960	0	0	99999	0	0
75	75	0	0	0	0	960	0	0	99999	0	0
25	25	0	0	0	0	960	0	0	0	0	0
50	25	0	0	0	0	960	0	0	0	0	0
75	25	0	0	0	0	960	0	0	0	0	0
25	50	0	0	0	0	960	0	0	0	0	0
75	50	0	0	0	0	960	0	0	0	0	0
25	75	0	0	0	0	960	0	0	0	0	0
50	75	0	0	0	0	960	0	0	0	0	0
75	75	0	0	0	0	960	0	0	0	0	0
40      50      0       0       0       0       240     0       0       0       0       0
73      52      0       0       0       0       240     0       0       0       0       0
90      55      0       0       0       0       240     0       0       0       0       0
55      79      0       0       0       0       240     0       0       0       0       0
69      89      0       0       0       0       240     0       0       0       0       0
32      80      0       0       0       0       240     0       0       0       0       0
39      96      0       0       0       0       240     0       0       0       0       0
23      80      0       0       0       0       240     0       0       0       0       0
4	83	0	0	0	0	960	0	0	0	0	0
18	58	0	0	0	0	960	0	0	0	0	0
1	56	0	0	0	0	960	0	0	0	0	0
13	31	0	0	0	0	960	0	0	0	0	0
-5	38	0	0	0	0	960	0	0	0	0	0
26	37	0	0	0	0	960	0	0	0	0	0
28	13	0	0	0	0	960	0	0	0	0	0
39	31	0	0	0	0	960	0	0	0	0	0
48	11	0	0	0	0	960	0	0	0	0	0
59	17	0	0	0	0	960	0	0	0	0	0
73	23	0	0	0	0	960	0	0	0	0	0
74	32	0	0	0	0	960	0	0	0	0	0
90	44	0	0	0	0	960	0	0	0	0	0
25	85	20	6	14	420	502	10	0	0	0	0
22	75	30	9	21	132	465	10	0	0	0	0
22	85	10	3	7	214	784	10	0	0	0	0
20	80	40	10	30	847	899	10	0	0	0	0
20	85	20	5	15	626	1010	10	0	0	0	0
18	75	20	5	15	243	595	10	0	0	0	0
15	75	20	4	16	261	319	10	0	0	0	0
15	80	10	2	8	482	720	10	0	0	0	0
10	35	20	6	14	660	970	10	0	0	0	0
10	40	30	8	22	483	651	10	0	0	0	0
8	40	40	8	32	450	674	10	0	0	0	0
8	45	20	4	16	942	1018	10	0	0	0	0
5	35	10	1	9	140	364	10	0	0	0	0
5	45	10	1	9	227	491	10	0	0	0	0
2	40	20	1	19	843	975	10	0	0	0	0
0	40	20	0	20	195	487	10	0	0	0	0
0	45	20	0	20	259	415	10	0	0	0	0
44	5	20	2	18	821	1005	10	0	0	0	0
42	10	40	10	30	142	403	10	0	0	0	0
42	15	10	4	6	319	419	10	0	0	0	0
40	5	10	1	9	521	845	10	0	0	0	0
40	15	40	15	25	669	895	10	0	0	0	0
38	5	30	4	26	201	659	10	0	0	0	0
38	15	10	4	6	230	414	10	0	0	0	0
35	5	20	3	17	147	341	10	0	0	0	0
95	30	30	9	21	774	992	10	0	0	0	0
95	35	20	7	13	540	993	10	0	0	0	0
92	30	10	3	7	168	460	10	0	0	0	0
90	35	10	4	6	567	757	10	0	0	0	0
88	30	10	3	7	490	664	10	0	0	0	0
88	35	20	8	12	382	1000	10	0	0	0	0
87	30	10	3	7	180	400	10	0	0	0	0
85	25	10	3	7	620	999	10	0	0	0	0
85	35	30	12	18	149	406	10	0	0	0	0
67	85	20	16	4	592	1006	10	0	0	0	0
65	85	40	31	9	558	798	10	0	0	0	0
65	82	10	8	2	185	641	10	0	0	0	0
62	80	30	23	7	139	466	10	0	0	0	0
60	80	10	8	2	646	1014	10	0	0	0	0
60	85	30	21	9	609	737	10	0	0	0	0
58	75	20	15	5	288	548	10	0	0	0	0
55	80	10	7	3	646	716	10	0	0	0	0
55	85	20	13	7	140	591	10	0	0	0	0
55	82	10	7	3	470	752	10	0	0	0	0
20	82	10	2	8	549	1013	10	0	0	0	0
18	80	10	2	8	729	1013	10	0	0	0	0
2	45	10	0	10	261	579	10	0	0	0	0
42	5	10	1	9	147	445	10	0	0	0	0
42	12	10	3	7	253	485	10	0	0	0	0
72	35	30	15	15	842	952	10	0	0	0	0
55	20	19	7	12	512	774	10	0	0	0	0
25	30	3	3	0	526	902	10	0	0	0	0
20	50	5	2	3	302	554	10	0	0	0	0
55	60	16	15	1	605	831	10	0	0	0	0
30	60	16	8	8	609	1035	10	0	0	0	0
50	35	19	13	6	170	520	10	0	0	0	0
30	25	23	19	4	283	491	10	0	0	0	0
15	10	20	13	7	500	708	10	0	0	0	0
10	20	19	10	9	702	930	10	0	0	0	0
15	60	17	4	13	128	400	10	0	0	0	0
45	65	9	6	3	406	1035	10	0	0	0	0
65	35	3	2	1	181	417	10	0	0	0	0
65	20	6	2	4	277	677	10	0	0	0	0
45	30	17	11	6	713	865	10	0	0	0	0
35	40	16	14	2	114	264	10	0	0	0	0
41	37	16	14	2	575	915	10	0	0	0	0
64	42	9	6	3	127	386	10	0	0	0	0
40	60	21	14	7	710	1041	10	0	0	0	0
31	52	27	16	11	111	350	10	0	0	0	0
35	69	23	12	11	492	626	10	0	0	0	0
65	55	14	12	2	913	999	10	0	0	0	0
63	65	8	8	0	327	657	10	0	0	0	0
2	60	5	0	5	414	488	10	0	0	0	0
20	20	8	8	0	892	1014	10	0	0	0	0
5	5	16	16	0	477	613	10	0	0	0	0
60	12	31	6	25	144	400	10	0	0	0	0
23	3	7	1	6	151	442	10	0	0	0	0
8	56	27	4	23	284	742	10	0	0	0	0
6	68	30	3	27	140	373	10	0	0	0	0
47	47	13	13	0	316	704	10	0	0	0	0
49	58	10	8	2	855	1035	10	0	0	0	0
27	43	9	6	3	589	751	10	0	0	0	0
37	31	14	12	2	460	728	10	0	0	0	0
57	29	18	9	9	743	1023	10	0	0	0	0
63	23	2	1	1	137	647	10	0	0	0	0
21	24	28	25	3	524	544	10	0	0	0	0
12	24	13	7	6	542	542	10	0	0	0	0
24	58	19	8	11	561	883	10	0	0	0	0
67	5	25	2	23	668	998	10	0	0	0	0
37	47	6	5	1	164	318	10	0	0	0	0
49	42	13	11	2	420	780	10	0	0	0	0
53	43	14	11	3	592	1036	10	0	0	0	0
61	52	3	3	0	451	505	10	0	0	0	0
57	48	23	19	4	791	969	10	0	0	0	0
56	37	6	4	2	493	887	10	0	0	0	0
55	54	26	26	0	420	456	10	0	0	0	0
4	18	35	8	27	931	955	10	0	0	0	0
26	52	9	5	4	276	482	10	0	0	0	0
26	35	15	11	4	122	230	10	0	0	0	0
31	67	3	1	2	629	629	10	0	0	0	0
